778,336
539,452
681,196
487,265
1036,462
593,285
681,226
406,131
363,88
927,745
839,188
611,309
597,322
1041,766
654,459
1055,596
681,436
977,452
727,110
598,662
660,385
311,286
269,107
469,618
912,860
1020,160
820,-21
765,490
672,465
690,347
